p cnf 330 480
59 60 1 91 0
59 60 1 -91 0
-59 -60 1 92 0
-59 -60 1 -92 0
59 -60 -1 93 0
59 -60 -1 -93 0
-59 60 -1 94 0
-59 60 -1 -94 0
1 61 2 95 0
1 61 2 -95 0
-1 -61 2 96 0
-1 -61 2 -96 0
1 -61 -2 97 0
1 -61 -2 -97 0
-1 61 -2 98 0
-1 61 -2 -98 0
2 62 3 99 0
2 62 3 -99 0
-2 -62 3 100 0
-2 -62 3 -100 0
2 -62 -3 101 0
2 -62 -3 -101 0
-2 62 -3 102 0
-2 62 -3 -102 0
3 63 4 103 0
3 63 4 -103 0
-3 -63 4 104 0
-3 -63 4 -104 0
3 -63 -4 105 0
3 -63 -4 -105 0
-3 63 -4 106 0
-3 63 -4 -106 0
4 64 5 107 0
4 64 5 -107 0
-4 -64 5 108 0
-4 -64 5 -108 0
4 -64 -5 109 0
4 -64 -5 -109 0
-4 64 -5 110 0
-4 64 -5 -110 0
5 65 6 111 0
5 65 6 -111 0
-5 -65 6 112 0
-5 -65 6 -112 0
5 -65 -6 113 0
5 -65 -6 -113 0
-5 65 -6 114 0
-5 65 -6 -114 0
6 66 7 115 0
6 66 7 -115 0
-6 -66 7 116 0
-6 -66 7 -116 0
6 -66 -7 117 0
6 -66 -7 -117 0
-6 66 -7 118 0
-6 66 -7 -118 0
7 67 8 119 0
7 67 8 -119 0
-7 -67 8 120 0
-7 -67 8 -120 0
7 -67 -8 121 0
7 -67 -8 -121 0
-7 67 -8 122 0
-7 67 -8 -122 0
8 68 9 123 0
8 68 9 -123 0
-8 -68 9 124 0
-8 -68 9 -124 0
8 -68 -9 125 0
8 -68 -9 -125 0
-8 68 -9 126 0
-8 68 -9 -126 0
9 69 10 127 0
9 69 10 -127 0
-9 -69 10 128 0
-9 -69 10 -128 0
9 -69 -10 129 0
9 -69 -10 -129 0
-9 69 -10 130 0
-9 69 -10 -130 0
10 70 11 131 0
10 70 11 -131 0
-10 -70 11 132 0
-10 -70 11 -132 0
10 -70 -11 133 0
10 -70 -11 -133 0
-10 70 -11 134 0
-10 70 -11 -134 0
11 71 12 135 0
11 71 12 -135 0
-11 -71 12 136 0
-11 -71 12 -136 0
11 -71 -12 137 0
11 -71 -12 -137 0
-11 71 -12 138 0
-11 71 -12 -138 0
12 72 13 139 0
12 72 13 -139 0
-12 -72 13 140 0
-12 -72 13 -140 0
12 -72 -13 141 0
12 -72 -13 -141 0
-12 72 -13 142 0
-12 72 -13 -142 0
13 73 14 143 0
13 73 14 -143 0
-13 -73 14 144 0
-13 -73 14 -144 0
13 -73 -14 145 0
13 -73 -14 -145 0
-13 73 -14 146 0
-13 73 -14 -146 0
14 74 15 147 0
14 74 15 -147 0
-14 -74 15 148 0
-14 -74 15 -148 0
14 -74 -15 149 0
14 -74 -15 -149 0
-14 74 -15 150 0
-14 74 -15 -150 0
15 75 16 151 0
15 75 16 -151 0
-15 -75 16 152 0
-15 -75 16 -152 0
15 -75 -16 153 0
15 -75 -16 -153 0
-15 75 -16 154 0
-15 75 -16 -154 0
16 76 17 155 0
16 76 17 -155 0
-16 -76 17 156 0
-16 -76 17 -156 0
16 -76 -17 157 0
16 -76 -17 -157 0
-16 76 -17 158 0
-16 76 -17 -158 0
17 77 18 159 0
17 77 18 -159 0
-17 -77 18 160 0
-17 -77 18 -160 0
17 -77 -18 161 0
17 -77 -18 -161 0
-17 77 -18 162 0
-17 77 -18 -162 0
18 78 19 163 0
18 78 19 -163 0
-18 -78 19 164 0
-18 -78 19 -164 0
18 -78 -19 165 0
18 -78 -19 -165 0
-18 78 -19 166 0
-18 78 -19 -166 0
19 79 20 167 0
19 79 20 -167 0
-19 -79 20 168 0
-19 -79 20 -168 0
19 -79 -20 169 0
19 -79 -20 -169 0
-19 79 -20 170 0
-19 79 -20 -170 0
20 80 21 171 0
20 80 21 -171 0
-20 -80 21 172 0
-20 -80 21 -172 0
20 -80 -21 173 0
20 -80 -21 -173 0
-20 80 -21 174 0
-20 80 -21 -174 0
21 81 22 175 0
21 81 22 -175 0
-21 -81 22 176 0
-21 -81 22 -176 0
21 -81 -22 177 0
21 -81 -22 -177 0
-21 81 -22 178 0
-21 81 -22 -178 0
22 82 23 179 0
22 82 23 -179 0
-22 -82 23 180 0
-22 -82 23 -180 0
22 -82 -23 181 0
22 -82 -23 -181 0
-22 82 -23 182 0
-22 82 -23 -182 0
23 83 24 183 0
23 83 24 -183 0
-23 -83 24 184 0
-23 -83 24 -184 0
23 -83 -24 185 0
23 -83 -24 -185 0
-23 83 -24 186 0
-23 83 -24 -186 0
24 84 25 187 0
24 84 25 -187 0
-24 -84 25 188 0
-24 -84 25 -188 0
24 -84 -25 189 0
24 -84 -25 -189 0
-24 84 -25 190 0
-24 84 -25 -190 0
25 85 26 191 0
25 85 26 -191 0
-25 -85 26 192 0
-25 -85 26 -192 0
25 -85 -26 193 0
25 -85 -26 -193 0
-25 85 -26 194 0
-25 85 -26 -194 0
26 86 27 195 0
26 86 27 -195 0
-26 -86 27 196 0
-26 -86 27 -196 0
26 -86 -27 197 0
26 -86 -27 -197 0
-26 86 -27 198 0
-26 86 -27 -198 0
27 87 28 199 0
27 87 28 -199 0
-27 -87 28 200 0
-27 -87 28 -200 0
27 -87 -28 201 0
27 -87 -28 -201 0
-27 87 -28 202 0
-27 87 -28 -202 0
28 88 29 203 0
28 88 29 -203 0
-28 -88 29 204 0
-28 -88 29 -204 0
28 -88 -29 205 0
28 -88 -29 -205 0
-28 88 -29 206 0
-28 88 -29 -206 0
29 89 90 207 0
29 89 90 -207 0
-29 -89 90 208 0
-29 -89 90 -208 0
29 -89 -90 209 0
29 -89 -90 -209 0
-29 89 -90 210 0
-29 89 -90 -210 0
30 89 90 211 0
30 89 90 -211 0
-30 -89 90 212 0
-30 -89 90 -212 0
30 -89 -90 213 0
30 -89 -90 -213 0
-30 89 -90 214 0
-30 89 -90 -214 0
31 88 30 215 0
31 88 30 -215 0
-31 -88 30 216 0
-31 -88 30 -216 0
31 -88 -30 217 0
31 -88 -30 -217 0
-31 88 -30 218 0
-31 88 -30 -218 0
32 87 31 219 0
32 87 31 -219 0
-32 -87 31 220 0
-32 -87 31 -220 0
32 -87 -31 221 0
32 -87 -31 -221 0
-32 87 -31 222 0
-32 87 -31 -222 0
33 86 32 223 0
33 86 32 -223 0
-33 -86 32 224 0
-33 -86 32 -224 0
33 -86 -32 225 0
33 -86 -32 -225 0
-33 86 -32 226 0
-33 86 -32 -226 0
34 85 33 227 0
34 85 33 -227 0
-34 -85 33 228 0
-34 -85 33 -228 0
34 -85 -33 229 0
34 -85 -33 -229 0
-34 85 -33 230 0
-34 85 -33 -230 0
35 84 34 231 0
35 84 34 -231 0
-35 -84 34 232 0
-35 -84 34 -232 0
35 -84 -34 233 0
35 -84 -34 -233 0
-35 84 -34 234 0
-35 84 -34 -234 0
36 83 35 235 0
36 83 35 -235 0
-36 -83 35 236 0
-36 -83 35 -236 0
36 -83 -35 237 0
36 -83 -35 -237 0
-36 83 -35 238 0
-36 83 -35 -238 0
37 82 36 239 0
37 82 36 -239 0
-37 -82 36 240 0
-37 -82 36 -240 0
37 -82 -36 241 0
37 -82 -36 -241 0
-37 82 -36 242 0
-37 82 -36 -242 0
38 81 37 243 0
38 81 37 -243 0
-38 -81 37 244 0
-38 -81 37 -244 0
38 -81 -37 245 0
38 -81 -37 -245 0
-38 81 -37 246 0
-38 81 -37 -246 0
39 80 38 247 0
39 80 38 -247 0
-39 -80 38 248 0
-39 -80 38 -248 0
39 -80 -38 249 0
39 -80 -38 -249 0
-39 80 -38 250 0
-39 80 -38 -250 0
40 79 39 251 0
40 79 39 -251 0
-40 -79 39 252 0
-40 -79 39 -252 0
40 -79 -39 253 0
40 -79 -39 -253 0
-40 79 -39 254 0
-40 79 -39 -254 0
41 78 40 255 0
41 78 40 -255 0
-41 -78 40 256 0
-41 -78 40 -256 0
41 -78 -40 257 0
41 -78 -40 -257 0
-41 78 -40 258 0
-41 78 -40 -258 0
42 77 41 259 0
42 77 41 -259 0
-42 -77 41 260 0
-42 -77 41 -260 0
42 -77 -41 261 0
42 -77 -41 -261 0
-42 77 -41 262 0
-42 77 -41 -262 0
43 76 42 263 0
43 76 42 -263 0
-43 -76 42 264 0
-43 -76 42 -264 0
43 -76 -42 265 0
43 -76 -42 -265 0
-43 76 -42 266 0
-43 76 -42 -266 0
44 75 43 267 0
44 75 43 -267 0
-44 -75 43 268 0
-44 -75 43 -268 0
44 -75 -43 269 0
44 -75 -43 -269 0
-44 75 -43 270 0
-44 75 -43 -270 0
45 74 44 271 0
45 74 44 -271 0
-45 -74 44 272 0
-45 -74 44 -272 0
45 -74 -44 273 0
45 -74 -44 -273 0
-45 74 -44 274 0
-45 74 -44 -274 0
46 73 45 275 0
46 73 45 -275 0
-46 -73 45 276 0
-46 -73 45 -276 0
46 -73 -45 277 0
46 -73 -45 -277 0
-46 73 -45 278 0
-46 73 -45 -278 0
47 72 46 279 0
47 72 46 -279 0
-47 -72 46 280 0
-47 -72 46 -280 0
47 -72 -46 281 0
47 -72 -46 -281 0
-47 72 -46 282 0
-47 72 -46 -282 0
48 71 47 283 0
48 71 47 -283 0
-48 -71 47 284 0
-48 -71 47 -284 0
48 -71 -47 285 0
48 -71 -47 -285 0
-48 71 -47 286 0
-48 71 -47 -286 0
49 70 48 287 0
49 70 48 -287 0
-49 -70 48 288 0
-49 -70 48 -288 0
49 -70 -48 289 0
49 -70 -48 -289 0
-49 70 -48 290 0
-49 70 -48 -290 0
50 69 49 291 0
50 69 49 -291 0
-50 -69 49 292 0
-50 -69 49 -292 0
50 -69 -49 293 0
50 -69 -49 -293 0
-50 69 -49 294 0
-50 69 -49 -294 0
51 68 50 295 0
51 68 50 -295 0
-51 -68 50 296 0
-51 -68 50 -296 0
51 -68 -50 297 0
51 -68 -50 -297 0
-51 68 -50 298 0
-51 68 -50 -298 0
52 67 51 299 0
52 67 51 -299 0
-52 -67 51 300 0
-52 -67 51 -300 0
52 -67 -51 301 0
52 -67 -51 -301 0
-52 67 -51 302 0
-52 67 -51 -302 0
53 66 52 303 0
53 66 52 -303 0
-53 -66 52 304 0
-53 -66 52 -304 0
53 -66 -52 305 0
53 -66 -52 -305 0
-53 66 -52 306 0
-53 66 -52 -306 0
54 65 53 307 0
54 65 53 -307 0
-54 -65 53 308 0
-54 -65 53 -308 0
54 -65 -53 309 0
54 -65 -53 -309 0
-54 65 -53 310 0
-54 65 -53 -310 0
55 64 54 311 0
55 64 54 -311 0
-55 -64 54 312 0
-55 -64 54 -312 0
55 -64 -54 313 0
55 -64 -54 -313 0
-55 64 -54 314 0
-55 64 -54 -314 0
56 63 55 315 0
56 63 55 -315 0
-56 -63 55 316 0
-56 -63 55 -316 0
56 -63 -55 317 0
56 -63 -55 -317 0
-56 63 -55 318 0
-56 63 -55 -318 0
57 62 56 319 0
57 62 56 -319 0
-57 -62 56 320 0
-57 -62 56 -320 0
57 -62 -56 321 0
57 -62 -56 -321 0
-57 62 -56 322 0
-57 62 -56 -322 0
58 61 57 323 0
58 61 57 -323 0
-58 -61 57 324 0
-58 -61 57 -324 0
58 -61 -57 325 0
58 -61 -57 -325 0
-58 61 -57 326 0
-58 61 -57 -326 0
59 60 -58 327 0
59 60 -58 -327 0
-59 -60 -58 328 0
-59 -60 -58 -328 0
59 -60 58 329 0
59 -60 58 -329 0
-59 60 58 330 0
-59 60 58 -330 0
